25
1 0 1
2 0 1
2 1 1
3 0 4
3 1 3
3 2 2
4 0 2
4 1 1
4 2 4
4 3 3
5 0 5
5 1 5
5 2 1
5 3 2
5 4 2
6 0 2
6 1 5
6 2 3
6 3 4
6 4 1
6 5 1
7 0 4
7 1 4
7 2 3
7 3 2
7 4 2
7 5 4
7 6 5
8 0 1
8 1 4
8 2 1
8 3 5
8 4 1
8 5 5
8 6 1
8 7 5
9 0 2
9 1 4
9 2 1
9 3 5
9 4 4
9 5 3
9 6 1
9 7 5
9 8 1
10 0 3
10 1 1
10 2 2
10 3 4
10 4 5
10 5 3
10 6 5
10 7 3
10 8 3
10 9 4
11 0 3
11 1 2
11 2 4
11 3 5
11 4 4
11 5 3
11 6 2
11 7 3
11 8 1
11 9 3
11 10 1
12 0 2
12 1 1
12 2 2
12 3 4
12 4 5
12 5 3
12 6 2
12 7 2
12 8 2
12 9 4
12 10 1
12 11 3
13 0 4
13 1 5
13 2 2
13 3 2
13 4 3
13 5 4
13 6 4
13 7 1
13 8 4
13 9 1
13 10 3
13 11 3
13 12 5
14 0 4
14 1 1
14 2 1
14 3 4
14 4 5
14 5 5
14 6 1
14 7 5
14 8 1
14 9 2
14 10 4
14 11 2
14 12 3
14 13 4
15 0 1
15 1 3
15 2 2
15 3 2
15 4 4
15 5 5
15 6 1
15 7 3
15 8 1
15 9 2
15 10 5
15 11 1
15 12 5
15 13 3
15 14 2
16 0 3
16 1 5
16 2 4
16 3 4
16 4 3
16 5 3
16 6 1
16 7 3
16 8 5
16 9 2
16 10 4
16 11 2
16 12 5
16 13 3
16 14 5
16 15 4
17 0 1
17 1 2
17 2 2
17 3 1
17 4 3
17 5 1
17 6 1
17 7 4
17 8 5
17 9 1
17 10 5
17 11 4
17 12 2
17 13 1
17 14 4
17 15 5
17 16 1
18 0 1
18 1 3
18 2 3
18 3 4
18 4 4
18 5 1
18 6 4
18 7 3
18 8 2
18 9 5
18 10 5
18 11 5
18 12 1
18 13 5
18 14 3
18 15 1
18 16 5
18 17 3
19 0 3
19 1 5
19 2 3
19 3 2
19 4 4
19 5 2
19 6 2
19 7 2
19 8 5
19 9 5
19 10 3
19 11 3
19 12 1
19 13 1
19 14 1
19 15 3
19 16 4
19 17 2
19 18 1
20 0 5
20 1 5
20 2 4
20 3 3
20 4 4
20 5 1
20 6 3
20 7 5
20 8 3
20 9 5
20 10 3
20 11 4
20 12 4
20 13 3
20 14 1
20 15 2
20 16 1
20 17 5
20 18 1
20 19 2
21 0 4
21 1 1
21 2 4
21 3 4
21 4 3
21 5 2
21 6 5
21 7 1
21 8 1
21 9 2
21 10 2
21 11 1
21 12 3
21 13 4
21 14 2
21 15 3
21 16 1
21 17 5
21 18 5
21 19 3
21 20 3
22 0 2
22 1 1
22 2 4
22 3 4
22 4 3
22 5 3
22 6 1
22 7 1
22 8 2
22 9 5
22 10 3
22 11 4
22 12 2
22 13 4
22 14 4
22 15 2
22 16 1
22 17 3
22 18 4
22 19 3
22 20 1
22 21 3
23 0 3
23 1 3
23 2 5
23 3 2
23 4 3
23 5 5
23 6 5
23 7 1
23 8 3
23 9 1
23 10 4
23 11 2
23 12 3
23 13 2
23 14 2
23 15 1
23 16 5
23 17 5
23 18 2
23 19 5
23 20 2
23 21 1
23 22 5
24 0 1
24 1 1
24 2 5
24 3 4
24 4 4
24 5 2
24 6 4
24 7 2
24 8 5
24 9 1
24 10 2
24 11 1
24 12 5
24 13 5
24 14 5
24 15 4
24 16 5
24 17 3
24 18 1
24 19 3
24 20 2
24 21 2
24 22 2
24 23 1
